CMPL model generation - running

CMPL version: 1.11.0
Authors: Thomas Schleiff, Mike Steglich
Distributed under the GPLv3 

create model instance ...
write model instance ...
CMPL model generation - finished

Solver - running


Welcome to IBM(R) ILOG(R) CPLEX(R) Interactive Optimizer 12.7.1.0
  with Simplex, Mixed Integer & Barrier Optimizers
5725-A06 5725-A29 5724-Y48 5724-Y49 5724-Y54 5724-Y55 5655-Y21
Copyright IBM Corp. 1988, 2017.  All Rights Reserved.

Type 'help' for a list of available commands.
Type 'help' followed by a command name for more
information on commands.

CPLEX> Specified objective sense: MINIMIZE
Selected objective  name:  line[1]
Selected RHS        name:  RHS
Selected bound      name:  BOUND
Problem '/tmp/cmpl.T23386.mps' read.
Read time = 0.05 sec. (8.16 ticks)
CPLEX> CPXPARAM_Read_APIEncoding                        "UTF-8"
Tried aggregator 3 times.
MIP Presolve eliminated 19325 rows and 30849 columns.
MIP Presolve modified 340 coefficients.
Aggregator did 573 substitutions.
Reduced MIP has 2457 rows, 3171 columns, and 9275 nonzeros.
Reduced MIP has 3003 binaries, 0 generals, 0 SOSs, and 0 indicators.
Presolve time = 0.05 sec. (40.18 ticks)
Found incumbent of value 347.103534 after 0.07 sec. (55.79 ticks)
Probing fixed 5 vars, tightened 0 bounds.
Probing time = 0.01 sec. (4.02 ticks)
Tried aggregator 1 time.
MIP Presolve eliminated 0 rows and 5 columns.
MIP Presolve modified 19 coefficients.
Reduced MIP has 2457 rows, 3166 columns, and 9265 nonzeros.
Reduced MIP has 3166 binaries, 0 generals, 0 SOSs, and 0 indicators.
Presolve time = 0.01 sec. (7.94 ticks)
Probing time = 0.01 sec. (2.66 ticks)
Clique table members: 5300.
MIP emphasis: balance optimality and feasibility.
MIP search method: dynamic search.
Parallel mode: none, using 1 thread.
Root relaxation solution time = 0.01 sec. (4.15 ticks)

        Nodes                                         Cuts/
   Node  Left     Objective  IInf  Best Integer    Best Bound    ItCnt     Gap

*     0+    0                          347.1035      -50.2559           114.48%
      0     0        8.8187    25      347.1035        8.8187       53   97.46%
*     0+    0                           66.0938        8.8187            86.66%
*     0+    0                            9.5330        8.8187             7.49%
      0     0        cutoff              9.5330                     53    0.00%
Elapsed time = 0.12 sec. (88.13 ticks, tree = 0.01 MB, solutions = 3)

Root node processing (before b&c):
  Real time             =    0.13 sec. (89.62 ticks)
Sequential b&c:
  Real time             =    0.00 sec. (0.00 ticks)
                          ------------
Total (root+branch&cut) =    0.13 sec. (89.62 ticks)

Solution pool: 3 solutions saved.

MIP - Integer optimal solution:  Objective =  9.5329870000e+00
Solution time =    0.13 sec.  Iterations = 53  Nodes = 0
Deterministic time = 89.72 ticks  (709.08 ticks/sec)

CPLEX> Incumbent solution written to file '/tmp/cmpl.T23386.gsol'.
CPLEX> 
CMPL: Time used for model generation: 0 seconds
CMPL: Time used for solving the model: 1 seconds


Solution written to ASCII file: results/output_generated_conf_0/2017-02-06-4/fair-nonlinear.sol

Solver - finished
